(set-logic HORN)
(declare-fun state (Int (Array Int Int) (Array Int Int) (Array Int Int) (Array Int Int) Int Int (Array Int Int) (Array Int Int) Int Int Int Int Bool Int Int Int Int Int Int Int Int Int Bool Bool Bool Bool (Array Int Int) Bool) Bool)
(assert (forall ((|hhv_ULTIMATE.start_L18_0_Int| Int) (|hbv_ULTIMATE.start_L30-4_1_Array_Int_Int| (Array Int Int)) (|hhv_ULTIMATE.start_L18_2_Array_Int_Int| (Array Int Int)) (|hhv_ULTIMATE.start_L18_3_Array_Int_Array_Int_Int| (Array Int Int)) (|hhv_ULTIMATE.start_L18_4_Array_Int_Array_Int_Int| (Array Int Int)) (|hhv_ULTIMATE.start_L18_5_Int| Int) (|hhv_ULTIMATE.start_L18_6_Int| Int) (|hhv_ULTIMATE.start_L18_7_Array_Int_Int| (Array Int Int)) (|hhv_ULTIMATE.start_L18_8_Array_Int_Int| (Array Int Int)) (|hhv_ULTIMATE.start_L18_9_Int| Int) (|hhv_ULTIMATE.start_L18_10_Int| Int) (|hbv_ULTIMATE.start_L30-4_11_Int| Int) (|hhv_ULTIMATE.start_L18_12_Int| Int) (|hhv_ULTIMATE.start_L18_13_Bool| Bool) (|hhv_ULTIMATE.start_L18_14_Int| Int) (|hhv_ULTIMATE.start_L18_15_Int| Int) (|hhv_ULTIMATE.start_L18_16_Int| Int) (|hhv_ULTIMATE.start_L18_17_Int| Int) (|hhv_ULTIMATE.start_L18_18_Int| Int) (|hbv_ULTIMATE.start_L30-4_19_Int| Int) (|hhv_ULTIMATE.start_L18_20_Int| Int) (|hhv_ULTIMATE.start_L18_21_Int| Int) (|hhv_ULTIMATE.start_L18_22_Int| Int) (|hhv_ULTIMATE.start_L18_23_Bool| Bool) (|.loc.4| Bool) (|.loc.5| Bool) (|.loc.6| Bool) (|hbv_ULTIMATE.start_L-1_1_Array_Int_Int| (Array Int Int)) (|hbv_ULTIMATE.start_L31_13_Bool_0| Bool) (|.x.319| Int) (|.x.317| (Array Int Int)) (|.x.315| Int) (|.x.313| (Array Int Int)) (|.x.309| Int) (|.x.311| (Array Int Int)) (|.x.325| Int) (|.x.330| Int) (|.x.332| Bool) (|.x.310| (Array Int Int)) (|.x.324| Int) (|.x.329| Int) (|.x.328| Int) (|.x.320| Int) (|.loc.7| Bool) (|.x.326| Int) (|.x.322| Bool) (|.loc.8| Bool) (|.loc.9| Bool) (|.x.331| Int) (|.x.321| Int) (|.x.312| (Array Int Int)) (|.x.327| Int) (|.x.323| Int) (|.x.318| Int) (|.x.314| Int) (|.x.316| (Array Int Int)) (|.xtv.1| (Array Int Int)) (|.xtv.2| Bool)) (=> (and (and (and .loc.5 (not .loc.4)) (not .loc.6)) (and (and (and (and (and (= hbv_ULTIMATE.start_L30-4_1_Array_Int_Int hhv_ULTIMATE.start_L18_2_Array_Int_Int) (= hhv_ULTIMATE.start_L18_7_Array_Int_Int hhv_ULTIMATE.start_L18_8_Array_Int_Int)) (= hhv_ULTIMATE.start_L18_5_Int hhv_ULTIMATE.start_L18_6_Int)) (= hhv_ULTIMATE.start_L18_9_Int hhv_ULTIMATE.start_L18_10_Int)) (= hhv_ULTIMATE.start_L18_3_Array_Int_Array_Int_Int hhv_ULTIMATE.start_L18_4_Array_Int_Array_Int_Int)) (not hhv_ULTIMATE.start_L18_23_Bool))) (state |hhv_ULTIMATE.start_L18_0_Int| |hbv_ULTIMATE.start_L30-4_1_Array_Int_Int| |hhv_ULTIMATE.start_L18_2_Array_Int_Int| |hhv_ULTIMATE.start_L18_3_Array_Int_Array_Int_Int| |hhv_ULTIMATE.start_L18_4_Array_Int_Array_Int_Int| |hhv_ULTIMATE.start_L18_5_Int| |hhv_ULTIMATE.start_L18_6_Int| |hhv_ULTIMATE.start_L18_7_Array_Int_Int| |hhv_ULTIMATE.start_L18_8_Array_Int_Int| |hhv_ULTIMATE.start_L18_9_Int| |hhv_ULTIMATE.start_L18_10_Int| |hbv_ULTIMATE.start_L30-4_11_Int| |hhv_ULTIMATE.start_L18_12_Int| |hhv_ULTIMATE.start_L18_13_Bool| |hhv_ULTIMATE.start_L18_14_Int| |hhv_ULTIMATE.start_L18_15_Int| |hhv_ULTIMATE.start_L18_16_Int| |hhv_ULTIMATE.start_L18_17_Int| |hhv_ULTIMATE.start_L18_18_Int| |hbv_ULTIMATE.start_L30-4_19_Int| |hhv_ULTIMATE.start_L18_20_Int| |hhv_ULTIMATE.start_L18_21_Int| |hhv_ULTIMATE.start_L18_22_Int| |hhv_ULTIMATE.start_L18_23_Bool| |.loc.4| |.loc.5| |.loc.6| |hbv_ULTIMATE.start_L-1_1_Array_Int_Int| |hbv_ULTIMATE.start_L31_13_Bool_0|))))
(assert (forall ((|hhv_ULTIMATE.start_L18_0_Int| Int) (|hbv_ULTIMATE.start_L30-4_1_Array_Int_Int| (Array Int Int)) (|hhv_ULTIMATE.start_L18_2_Array_Int_Int| (Array Int Int)) (|hhv_ULTIMATE.start_L18_3_Array_Int_Array_Int_Int| (Array Int Int)) (|hhv_ULTIMATE.start_L18_4_Array_Int_Array_Int_Int| (Array Int Int)) (|hhv_ULTIMATE.start_L18_5_Int| Int) (|hhv_ULTIMATE.start_L18_6_Int| Int) (|hhv_ULTIMATE.start_L18_7_Array_Int_Int| (Array Int Int)) (|hhv_ULTIMATE.start_L18_8_Array_Int_Int| (Array Int Int)) (|hhv_ULTIMATE.start_L18_9_Int| Int) (|hhv_ULTIMATE.start_L18_10_Int| Int) (|hbv_ULTIMATE.start_L30-4_11_Int| Int) (|hhv_ULTIMATE.start_L18_12_Int| Int) (|hhv_ULTIMATE.start_L18_13_Bool| Bool) (|hhv_ULTIMATE.start_L18_14_Int| Int) (|hhv_ULTIMATE.start_L18_15_Int| Int) (|hhv_ULTIMATE.start_L18_16_Int| Int) (|hhv_ULTIMATE.start_L18_17_Int| Int) (|hhv_ULTIMATE.start_L18_18_Int| Int) (|hbv_ULTIMATE.start_L30-4_19_Int| Int) (|hhv_ULTIMATE.start_L18_20_Int| Int) (|hhv_ULTIMATE.start_L18_21_Int| Int) (|hhv_ULTIMATE.start_L18_22_Int| Int) (|hhv_ULTIMATE.start_L18_23_Bool| Bool) (|.loc.4| Bool) (|.loc.5| Bool) (|.loc.6| Bool) (|hbv_ULTIMATE.start_L-1_1_Array_Int_Int| (Array Int Int)) (|hbv_ULTIMATE.start_L31_13_Bool_0| Bool) (|.x.319| Int) (|.x.317| (Array Int Int)) (|.x.315| Int) (|.x.313| (Array Int Int)) (|.x.309| Int) (|.x.311| (Array Int Int)) (|.x.325| Int) (|.x.330| Int) (|.x.332| Bool) (|.x.310| (Array Int Int)) (|.x.324| Int) (|.x.329| Int) (|.x.328| Int) (|.x.320| Int) (|.loc.7| Bool) (|.x.326| Int) (|.x.322| Bool) (|.loc.8| Bool) (|.loc.9| Bool) (|.x.331| Int) (|.x.321| Int) (|.x.312| (Array Int Int)) (|.x.327| Int) (|.x.323| Int) (|.x.318| Int) (|.x.314| Int) (|.x.316| (Array Int Int)) (|.xtv.1| (Array Int Int)) (|.xtv.2| Bool)) (=> (and (state |hhv_ULTIMATE.start_L18_0_Int| |hbv_ULTIMATE.start_L30-4_1_Array_Int_Int| |hhv_ULTIMATE.start_L18_2_Array_Int_Int| |hhv_ULTIMATE.start_L18_3_Array_Int_Array_Int_Int| |hhv_ULTIMATE.start_L18_4_Array_Int_Array_Int_Int| |hhv_ULTIMATE.start_L18_5_Int| |hhv_ULTIMATE.start_L18_6_Int| |hhv_ULTIMATE.start_L18_7_Array_Int_Int| |hhv_ULTIMATE.start_L18_8_Array_Int_Int| |hhv_ULTIMATE.start_L18_9_Int| |hhv_ULTIMATE.start_L18_10_Int| |hbv_ULTIMATE.start_L30-4_11_Int| |hhv_ULTIMATE.start_L18_12_Int| |hhv_ULTIMATE.start_L18_13_Bool| |hhv_ULTIMATE.start_L18_14_Int| |hhv_ULTIMATE.start_L18_15_Int| |hhv_ULTIMATE.start_L18_16_Int| |hhv_ULTIMATE.start_L18_17_Int| |hhv_ULTIMATE.start_L18_18_Int| |hbv_ULTIMATE.start_L30-4_19_Int| |hhv_ULTIMATE.start_L18_20_Int| |hhv_ULTIMATE.start_L18_21_Int| |hhv_ULTIMATE.start_L18_22_Int| |hhv_ULTIMATE.start_L18_23_Bool| |.loc.4| |.loc.5| |.loc.6| |hbv_ULTIMATE.start_L-1_1_Array_Int_Int| |hbv_ULTIMATE.start_L31_13_Bool_0|) (let ((.def_39 (not .loc.4))) (let ((.def_41 (not .loc.6))) (let ((.def_83 (= hhv_ULTIMATE.start_L18_15_Int .x.324))) (let ((.def_86 (= hhv_ULTIMATE.start_L18_20_Int .x.329))) (let ((.def_88 (= hhv_ULTIMATE.start_L18_23_Bool .x.332))) (let ((.def_93 (= .x.324 0))) (let ((.def_96 (not .loc.5))) (let ((.def_99 (= hhv_ULTIMATE.start_L18_21_Int .x.330))) (let ((.def_102 (= hbv_ULTIMATE.start_L30-4_19_Int .x.328))) (let ((.def_105 (= hbv_ULTIMATE.start_L30-4_11_Int .x.320))) (let ((.def_107 (= hbv_ULTIMATE.start_L30-4_1_Array_Int_Int .x.310))) (let ((.def_114 (or hhv_ULTIMATE.start_L18_23_Bool (and (= .x.324 .x.329) (= .x.329 (ite hhv_ULTIMATE.start_L18_13_Bool 1 0)))))) (let ((.def_130 (not .loc.7))) (let ((.def_135 (and .loc.4 (and .def_88 (and .def_83 .def_86))))) (let ((.def_142 (and .def_130 (and .def_107 (and .def_105 (and .def_102 (and .def_99 (and .def_96 (and .loc.6 .def_135))))))))) (let ((.def_149 (+ hhv_ULTIMATE.start_L18_12_Int (* (- 4294967296) (to_int (* (/ 1 4294967296) (to_real hhv_ULTIMATE.start_L18_12_Int))))))) (let ((.def_151 (<= 10000 .def_149))) (let ((.def_152 (or hhv_ULTIMATE.start_L18_23_Bool .def_151))) (let ((.def_156 (= hhv_ULTIMATE.start_L18_17_Int .x.326))) (let ((.def_158 (= hhv_ULTIMATE.start_L18_13_Bool .x.322))) (let ((.def_182 (= (+ (* 2 hhv_ULTIMATE.start_L18_12_Int) (+ (* (- 1) .x.326) (+ (* 4294967296 (to_int (* (/ 1 4294967296) (to_real .x.326)))) (* (- 4294967296) (to_int (* (/ 1 2147483648) (to_real hhv_ULTIMATE.start_L18_12_Int))))))) 0))) (let ((.def_183 (not .def_182))) (let ((.def_184 (not .x.322))) (let ((.def_188 (not .def_151))) (let ((.def_197 (select hhv_ULTIMATE.start_L18_3_Array_Int_Array_Int_Int hbv_ULTIMATE.start_L30-4_11_Int))) (let ((.def_199 (= .x.326 (select .def_197 (+ hbv_ULTIMATE.start_L30-4_19_Int (* 4 (ite (<= .def_149 2147483647) .def_149 (+ (- 4294967296) .def_149)))))))) (let ((.def_203 (not .loc.9))) (let ((.def_205 (not .loc.8))) (let ((.def_206 (and (and .def_142 .def_203) .def_205))) (let ((.def_211 (= hhv_ULTIMATE.start_L18_22_Int .x.331))) (let ((.def_213 (not hbv_ULTIMATE.start_L31_13_Bool_0))) (let ((.def_238 (= (+ .x.331 (* (- 4294967296) (to_int (* (/ 1 4294967296) (to_real .x.331))))) 0))) (let ((.def_250 (= hhv_ULTIMATE.start_L18_18_Int .x.327))) (let ((.def_251 (= hhv_ULTIMATE.start_L18_12_Int .x.321))) (let ((.def_256 (= (+ hhv_ULTIMATE.start_L18_12_Int (* (- 1) .x.321)) (- 1)))) (let ((.def_269 (= .x.321 0))) (let ((.def_276 (and .def_88 (and .def_211 (and .def_86 (and .def_250 (and .def_156 (and .def_83 .def_158)))))))) (let ((.def_328 (= hhv_ULTIMATE.start_L18_14_Int .x.323))) (let ((.def_329 (= hhv_ULTIMATE.start_L18_3_Array_Int_Array_Int_Int .x.312))) (and (and (= hhv_ULTIMATE.start_L18_10_Int .x.319) (and (= hhv_ULTIMATE.start_L18_8_Array_Int_Int .x.317) (and (= hhv_ULTIMATE.start_L18_6_Int .x.315) (and (= hhv_ULTIMATE.start_L18_4_Array_Int_Array_Int_Int .x.313) (and (= hhv_ULTIMATE.start_L18_0_Int .x.309) (= hhv_ULTIMATE.start_L18_2_Array_Int_Int .x.311)))))) (or (and (or (or (or (and (or (or (or (or (and (or (and (or (and (or (or (and (or (and .loc.6 (and .loc.5 (and (or (= .x.325 .x.330) .x.332) (and (and (and (or hhv_ULTIMATE.start_L18_23_Bool (= (store hbv_ULTIMATE.start_L30-4_1_Array_Int_Int hbv_ULTIMATE.start_L30-4_11_Int 0) .x.310)) .def_83) .def_86) .def_88)))) (and (and (and (and (and (and (or hhv_ULTIMATE.start_L18_23_Bool .def_93) (and (and .def_41 .x.332) .def_96)) .def_99) .def_102) .def_105) .def_107) .def_114)) (and .def_39 .loc.7)) (and (and .def_107 (and .def_105 (and .def_102 (and .def_99 (and .def_96 (and .loc.6 (and .loc.4 (and .def_88 (and .def_86 (and hhv_ULTIMATE.start_L18_23_Bool .def_83)))))))))) .def_130)) (and .def_142 .def_152)) (and (and (and .def_156 .def_158) .loc.8) .loc.9)) (and (or hhv_ULTIMATE.start_L18_23_Bool (and (and (or (and .def_183 .def_184) (and .x.322 .def_182)) .def_188) .def_199)) (and (or .x.332 .x.322) .def_206))) .def_211) (and (or hhv_ULTIMATE.start_L18_23_Bool (and .def_199 (and .def_188 (or (and .def_183 .def_213) (and hbv_ULTIMATE.start_L31_13_Bool_0 .def_182))))) (and .def_206 (or .x.332 (and .def_213 (and (= .x.331 (select (select .x.312 .x.320) (+ .x.328 (* 4 (ite (<= (+ .x.321 (* (- 4294967296) (to_int (* (/ 1 4294967296) (to_real .x.321))))) 2147483647) (+ .x.321 (* (- 4294967296) (to_int (* (/ 1 4294967296) (to_real .x.321))))) (+ (- 4294967296) (+ .x.321 (* (- 4294967296) (to_int (* (/ 1 4294967296) (to_real .x.321))))))))))) (or (and .x.322 .def_238) (and .def_184 (not .def_238))))))))) (and .def_250 .def_251)) (and (or .x.332 .def_256) (and .def_205 (and .def_107 (and .def_105 (and .def_102 (and .def_99 (and .def_96 (and .def_41 (and .loc.9 (and .loc.7 .def_135))))))))))) (and (or hhv_ULTIMATE.start_L18_23_Bool .def_269) (and .def_205 (and .def_107 (and .def_105 (and .def_102 (and .def_99 (and .def_96 (and .loc.9 (and .loc.7 (and .def_39 (and .loc.6 .def_276)))))))))))) (and .def_205 (and .def_130 (and .def_107 (and .def_105 (and .def_102 (and .def_99 (and .def_41 (and .loc.9 (and .loc.5 (and .loc.4 (and .def_88 (and .def_211 (and .def_86 (and .def_250 (and .def_156 (and .def_83 (and .def_158 (and hhv_ULTIMATE.start_L18_23_Bool .def_251))))))))))))))))))) (and .def_205 (and .def_152 (and .def_130 (and .def_107 (and .def_105 (and .def_102 (and .def_99 (and .def_41 (and .loc.9 (and .loc.5 (and .loc.4 (and .def_88 (and .def_211 (and .def_86 (and .def_250 (and .def_156 (and .def_83 (and .def_158 .def_251))))))))))))))))))) (and .def_328 .def_329)) (and (or hhv_ULTIMATE.start_L18_23_Bool (and (and .def_188 (and .def_256 (= .x.312 (store hhv_ULTIMATE.start_L18_3_Array_Int_Array_Int_Int hbv_ULTIMATE.start_L30-4_11_Int (store .def_197 (+ hbv_ULTIMATE.start_L30-4_19_Int (* 4 (ite (<= .def_149 2147483647) .def_149 (+ (- 4294967296) .def_149)))) hhv_ULTIMATE.start_L18_14_Int))))) (= (+ hhv_ULTIMATE.start_L18_14_Int (* (- 1) .x.323)) (- 2)))) (and .def_203 (and .def_107 (and .def_105 (and .def_102 (and .def_99 (and .def_41 (and .loc.8 (and .loc.7 (and .loc.5 (and .loc.4 .def_276)))))))))))) (and (or .x.332 (not .def_93)) (and .def_205 (and .def_203 (and .def_114 (and .def_107 (and .def_105 (and .def_102 (and .def_99 (and .def_96 (and .def_41 (and .loc.7 (and .def_39 (and .def_88 (and .def_211 (and .def_250 (and .def_156 (and .def_328 (and .def_158 (and .def_251 .def_329)))))))))))))))))))) (and .def_205 (and .def_203 (and .def_114 (and .def_107 (and .def_105 (and .def_102 (and .def_99 (and .def_96 (and .def_41 (and .loc.7 (and .def_39 (and .def_211 (and .def_250 (and .def_156 (and .def_328 (and .def_158 (and .def_251 (and .def_329 (and hhv_ULTIMATE.start_L18_23_Bool .x.332)))))))))))))))))))) (and (= hhv_ULTIMATE.start_L18_16_Int .x.325) (and (= hhv_ULTIMATE.start_L18_9_Int .x.318) (and (= hhv_ULTIMATE.start_L18_5_Int .x.314) (= hhv_ULTIMATE.start_L18_7_Array_Int_Int .x.316))))) (and (or hhv_ULTIMATE.start_L18_23_Bool (and (and (= .x.314 0) (= .x.318 0)) (= hbv_ULTIMATE.start_L-1_1_Array_Int_Int (store hbv_ULTIMATE.start_L30-4_1_Array_Int_Int 0 0)))) (and (or .x.332 (and (and (and (and .def_269 (and (and (and (not (<= .x.309 .x.320)) (not (= .x.320 0))) (= .x.310 (store hbv_ULTIMATE.start_L-1_1_Array_Int_Int .x.320 1))) (= .x.316 (store hhv_ULTIMATE.start_L18_7_Array_Int_Int .x.320 40000)))) (= .x.328 0)) (= (select hbv_ULTIMATE.start_L-1_1_Array_Int_Int .x.320) 0)) (= .x.323 0))) (and .def_203 (and .def_99 (and .def_41 (and .loc.8 (and .loc.7 (and .def_39 (and .loc.5 (and .def_88 (and .def_86 (and .def_83 .def_329)))))))))))))))))))))))))))))))))))))))))))))))))))))) (state |.x.309| |.x.310| |.x.311| |.x.312| |.x.313| |.x.314| |.x.315| |.x.316| |.x.317| |.x.318| |.x.319| |.x.320| |.x.321| |.x.322| |.x.323| |.x.324| |.x.325| |.x.326| |.x.327| |.x.328| |.x.329| |.x.330| |.x.331| |.x.332| |.loc.7| |.loc.8| |.loc.9| |.xtv.1| |.xtv.2|))))
(assert (forall ((|hhv_ULTIMATE.start_L18_0_Int| Int) (|hbv_ULTIMATE.start_L30-4_1_Array_Int_Int| (Array Int Int)) (|hhv_ULTIMATE.start_L18_2_Array_Int_Int| (Array Int Int)) (|hhv_ULTIMATE.start_L18_3_Array_Int_Array_Int_Int| (Array Int Int)) (|hhv_ULTIMATE.start_L18_4_Array_Int_Array_Int_Int| (Array Int Int)) (|hhv_ULTIMATE.start_L18_5_Int| Int) (|hhv_ULTIMATE.start_L18_6_Int| Int) (|hhv_ULTIMATE.start_L18_7_Array_Int_Int| (Array Int Int)) (|hhv_ULTIMATE.start_L18_8_Array_Int_Int| (Array Int Int)) (|hhv_ULTIMATE.start_L18_9_Int| Int) (|hhv_ULTIMATE.start_L18_10_Int| Int) (|hbv_ULTIMATE.start_L30-4_11_Int| Int) (|hhv_ULTIMATE.start_L18_12_Int| Int) (|hhv_ULTIMATE.start_L18_13_Bool| Bool) (|hhv_ULTIMATE.start_L18_14_Int| Int) (|hhv_ULTIMATE.start_L18_15_Int| Int) (|hhv_ULTIMATE.start_L18_16_Int| Int) (|hhv_ULTIMATE.start_L18_17_Int| Int) (|hhv_ULTIMATE.start_L18_18_Int| Int) (|hbv_ULTIMATE.start_L30-4_19_Int| Int) (|hhv_ULTIMATE.start_L18_20_Int| Int) (|hhv_ULTIMATE.start_L18_21_Int| Int) (|hhv_ULTIMATE.start_L18_22_Int| Int) (|hhv_ULTIMATE.start_L18_23_Bool| Bool) (|.loc.4| Bool) (|.loc.5| Bool) (|.loc.6| Bool) (|hbv_ULTIMATE.start_L-1_1_Array_Int_Int| (Array Int Int)) (|hbv_ULTIMATE.start_L31_13_Bool_0| Bool) (|.x.319| Int) (|.x.317| (Array Int Int)) (|.x.315| Int) (|.x.313| (Array Int Int)) (|.x.309| Int) (|.x.311| (Array Int Int)) (|.x.325| Int) (|.x.330| Int) (|.x.332| Bool) (|.x.310| (Array Int Int)) (|.x.324| Int) (|.x.329| Int) (|.x.328| Int) (|.x.320| Int) (|.loc.7| Bool) (|.x.326| Int) (|.x.322| Bool) (|.loc.8| Bool) (|.loc.9| Bool) (|.x.331| Int) (|.x.321| Int) (|.x.312| (Array Int Int)) (|.x.327| Int) (|.x.323| Int) (|.x.318| Int) (|.x.314| Int) (|.x.316| (Array Int Int)) (|.xtv.1| (Array Int Int)) (|.xtv.2| Bool)) (=> (state |hhv_ULTIMATE.start_L18_0_Int| |hbv_ULTIMATE.start_L30-4_1_Array_Int_Int| |hhv_ULTIMATE.start_L18_2_Array_Int_Int| |hhv_ULTIMATE.start_L18_3_Array_Int_Array_Int_Int| |hhv_ULTIMATE.start_L18_4_Array_Int_Array_Int_Int| |hhv_ULTIMATE.start_L18_5_Int| |hhv_ULTIMATE.start_L18_6_Int| |hhv_ULTIMATE.start_L18_7_Array_Int_Int| |hhv_ULTIMATE.start_L18_8_Array_Int_Int| |hhv_ULTIMATE.start_L18_9_Int| |hhv_ULTIMATE.start_L18_10_Int| |hbv_ULTIMATE.start_L30-4_11_Int| |hhv_ULTIMATE.start_L18_12_Int| |hhv_ULTIMATE.start_L18_13_Bool| |hhv_ULTIMATE.start_L18_14_Int| |hhv_ULTIMATE.start_L18_15_Int| |hhv_ULTIMATE.start_L18_16_Int| |hhv_ULTIMATE.start_L18_17_Int| |hhv_ULTIMATE.start_L18_18_Int| |hbv_ULTIMATE.start_L30-4_19_Int| |hhv_ULTIMATE.start_L18_20_Int| |hhv_ULTIMATE.start_L18_21_Int| |hhv_ULTIMATE.start_L18_22_Int| |hhv_ULTIMATE.start_L18_23_Bool| |.loc.4| |.loc.5| |.loc.6| |hbv_ULTIMATE.start_L-1_1_Array_Int_Int| |hbv_ULTIMATE.start_L31_13_Bool_0|) (not (and hhv_ULTIMATE.start_L18_23_Bool (and .loc.6 (and .loc.4 .loc.5)))))))
(check-sat)
